nK = 1617;
nT = 6;
nI = 14;
L = 35;
TT = 418;
np = 1;
nc = 3;
b = [44, 32, 61, 52, 21, 22, 44, 68, 56, 23, 30, 48, 56, 30];
d = [67, 100, 146, 101, 126, 55, 143, 113, 116, 135, 63, 118, 119, 123];
m = [2.3, 1.9, 1, 1.8, 2.3, 1.4, 2.5, 1, 1.3, 1.9, 1.8, 1.6, 2.1, 2.3];
pt = [0.26, 0.28, 0.25, 0.3, 0.35, 0.35];
st = [11.44, 15.12, 13.75, 13.5, 16.8, 17.85];
arc = {<1, 0, 1, 1, 0, 0, 0, [1, 1, 1, 1, 1, 1]>, <2, 1, 2, 1, 0, 0, 0, [1, 1, 1, 1, 1, 1]>, <3, 2, 3, 1, 0, 0, 0, [1, 1, 1, 1, 1, 1]>, <4, 3, 4, 1, 0, 0, 0, [1, 1, 1, 1, 1, 1]>, <5, 4, 5, 1, 0, 0, 0, [1, 1, 1, 1, 1, 1]>, <6, 5, 6, 1, 0, 0, 0, [1, 1, 1, 1, 1, 1]>, <7, 6, 7, 1, 0, 0, 0, [1, 1, 1, 1, 1, 1]>, <8, 7, 8, 1, 0, 0, 0, [1, 1, 1, 1, 1, 1]>, <9, 8, 9, 1, 0, 0, 0, [1, 1, 1, 1, 1, 1]>, <10, 9, 10, 1, 0, 0, 0, [1, 1, 1, 1, 1, 1]>, <11, 10, 11, 1, 0, 0, 0, [1, 1, 1, 1, 1, 1]>, <12, 11, 12, 1, 0, 0, 0, [1, 1, 1, 1, 1, 1]>, <13, 12, 13, 1, 0, 0, 0, [1, 1, 1, 1, 1, 1]>, <14, 13, 14, 1, 0, 0, 0, [1, 1, 1, 1, 1, 1]>, <15, 14, 15, 1, 0, 0, 0, [1, 1, 1, 1, 1, 1]>, <16, 15, 16, 1, 0, 0, 0, [1, 1, 1, 1, 1, 1]>, <17, 16, 17, 1, 0, 0, 0, [1, 1, 1, 1, 1, 1]>, <18, 17, 18, 1, 0, 0, 0, [1, 1, 1, 1, 1, 1]>, <19, 18, 19, 1, 0, 0, 0, [1, 1, 1, 1, 1, 1]>, <20, 19, 20, 1, 0, 0, 0, [1, 1, 1, 1, 1, 1]>, <21, 20, 21, 1, 0, 0, 0, [1, 1, 1, 1, 1, 1]>, <22, 21, 22, 1, 0, 0, 0, [1, 1, 1, 1, 1, 1]>, <23, 22, 23, 1, 0, 0, 0, [1, 1, 1, 1, 1, 1]>, <24, 23, 24, 1, 0, 0, 0, [1, 1, 1, 1, 1, 1]>, <25, 24, 25, 1, 0, 0, 0, [1, 1, 1, 1, 1, 1]>, <26, 25, 26, 1, 0, 0, 0, [1, 1, 1, 1, 1, 1]>, <27, 26, 27, 1, 0, 0, 0, [1, 1, 1, 1, 1, 1]>, <28, 27, 28, 1, 0, 0, 0, [1, 1, 1, 1, 1, 1]>, <29, 28, 29, 1, 0, 0, 0, [1, 1, 1, 1, 1, 1]>, <30, 29, 30, 1, 0, 0, 0, [1, 1, 1, 1, 1, 1]>, <31, 30, 31, 1, 0, 0, 0, [1, 1, 1, 1, 1, 1]>, <32, 31, 32, 1, 0, 0, 0, [1, 1, 1, 1, 1, 1]>, <33, 32, 33, 1, 0, 0, 0, [1, 1, 1, 1, 1, 1]>, <34, 33, 34, 1, 0, 0, 0, [1, 1, 1, 1, 1, 1]>, <35, 34, 35, 1, 0, 0, 0, [1, 1, 1, 1, 1, 1]>, <36, 0, 21, 21, 1, 1, 0, [0, 0, 1, 1, 0, 0]>, <37, 1, 22, 21, 1, 1, 0, [0, 0, 1, 1, 0, 0]>, <38, 2, 23, 21, 1, 1, 0, [0, 0, 1, 1, 0, 0]>, <39, 3, 24, 21, 1, 1, 0, [0, 0, 1, 1, 0, 0]>, <40, 4, 25, 21, 1, 1, 0, [0, 0, 1, 1, 0, 0]>, <41, 5, 26, 21, 1, 1, 0, [0, 0, 1, 1, 0, 0]>, <42, 6, 27, 21, 1, 1, 0, [0, 0, 1, 1, 0, 0]>, <43, 7, 28, 21, 1, 1, 0, [0, 0, 1, 1, 0, 0]>, <44, 8, 29, 21, 1, 1, 0, [0, 0, 1, 1, 0, 0]>, <45, 9, 30, 21, 1, 1, 0, [0, 0, 1, 1, 0, 0]>, <46, 10, 31, 21, 1, 1, 0, [0, 0, 1, 1, 0, 0]>, <47, 11, 32, 21, 1, 1, 0, [0, 0, 1, 1, 0, 0]>, <48, 12, 33, 21, 1, 1, 0, [0, 0, 1, 1, 0, 0]>, <49, 13, 34, 21, 1, 1, 0, [0, 0, 1, 1, 0, 0]>, <50, 14, 35, 21, 1, 1, 0, [0, 0, 1, 1, 0, 0]>, <51, 1, 17, 16, 2, 0, 0, [0, 0, 0, 0, 1, 1]>, <52, 2, 18, 16, 2, 0, 0, [0, 0, 0, 0, 1, 1]>, <53, 3, 19, 16, 2, 0, 0, [0, 0, 0, 0, 1, 1]>, <54, 4, 20, 16, 2, 0, 0, [0, 0, 0, 0, 1, 1]>, <55, 5, 21, 16, 2, 0, 0, [0, 0, 0, 0, 1, 1]>, <56, 6, 22, 16, 2, 0, 0, [0, 0, 0, 0, 1, 1]>, <57, 10, 26, 16, 2, 0, 0, [0, 0, 0, 0, 1, 1]>, <58, 11, 27, 16, 2, 0, 0, [0, 0, 0, 0, 1, 1]>, <59, 12, 28, 16, 2, 0, 0, [0, 0, 0, 0, 1, 1]>, <60, 13, 29, 16, 2, 0, 0, [0, 0, 0, 0, 1, 1]>, <61, 14, 30, 16, 2, 0, 0, [0, 0, 0, 0, 1, 1]>, <62, 15, 31, 16, 2, 0, 0, [0, 0, 0, 0, 1, 1]>, <63, 16, 32, 16, 2, 0, 0, [0, 0, 0, 0, 1, 1]>, <64, 17, 33, 16, 2, 0, 0, [0, 0, 0, 0, 1, 1]>, <65, 18, 34, 16, 2, 0, 0, [0, 0, 0, 0, 1, 1]>, <66, 19, 35, 16, 2, 0, 0, [0, 0, 0, 0, 1, 1]>, <67, 0, 18, 18, 3, 0, 0, [1, 0, 0, 0, 0, 1]>, <68, 1, 19, 18, 3, 0, 0, [1, 0, 0, 0, 0, 1]>, <69, 2, 20, 18, 3, 0, 0, [1, 0, 0, 0, 0, 1]>, <70, 3, 21, 18, 3, 0, 0, [1, 0, 0, 0, 0, 1]>, <71, 4, 22, 18, 3, 0, 0, [1, 0, 0, 0, 0, 1]>, <72, 5, 23, 18, 3, 0, 0, [1, 0, 0, 0, 0, 1]>, <73, 6, 24, 18, 3, 0, 0, [1, 0, 0, 0, 0, 1]>, <74, 8, 26, 18, 3, 0, 0, [1, 0, 0, 0, 0, 1]>, <75, 9, 27, 18, 3, 0, 0, [1, 0, 0, 0, 0, 1]>, <76, 10, 28, 18, 3, 0, 0, [1, 0, 0, 0, 0, 1]>, <77, 11, 29, 18, 3, 0, 0, [1, 0, 0, 0, 0, 1]>, <78, 12, 30, 18, 3, 0, 0, [1, 0, 0, 0, 0, 1]>, <79, 13, 31, 18, 3, 0, 0, [1, 0, 0, 0, 0, 1]>, <80, 14, 32, 18, 3, 0, 0, [1, 0, 0, 0, 0, 1]>, <81, 15, 33, 18, 3, 0, 0, [1, 0, 0, 0, 0, 1]>, <82, 16, 34, 18, 3, 0, 0, [1, 0, 0, 0, 0, 1]>, <83, 17, 35, 18, 3, 0, 0, [1, 0, 0, 0, 0, 1]>, <84, 0, 20, 20, 4, 0, 0, [0, 0, 0, 0, 1, 1]>, <85, 1, 21, 20, 4, 0, 0, [0, 0, 0, 0, 1, 1]>, <86, 2, 22, 20, 4, 0, 0, [0, 0, 0, 0, 1, 1]>, <87, 3, 23, 20, 4, 0, 0, [0, 0, 0, 0, 1, 1]>, <88, 4, 24, 20, 4, 0, 0, [0, 0, 0, 0, 1, 1]>, <89, 5, 25, 20, 4, 0, 0, [0, 0, 0, 0, 1, 1]>, <90, 6, 26, 20, 4, 0, 0, [0, 0, 0, 0, 1, 1]>, <91, 7, 27, 20, 4, 0, 0, [0, 0, 0, 0, 1, 1]>, <92, 8, 28, 20, 4, 0, 0, [0, 0, 0, 0, 1, 1]>, <93, 9, 29, 20, 4, 0, 0, [0, 0, 0, 0, 1, 1]>, <94, 10, 30, 20, 4, 0, 0, [0, 0, 0, 0, 1, 1]>, <95, 11, 31, 20, 4, 0, 0, [0, 0, 0, 0, 1, 1]>, <96, 12, 32, 20, 4, 0, 0, [0, 0, 0, 0, 1, 1]>, <97, 13, 33, 20, 4, 0, 0, [0, 0, 0, 0, 1, 1]>, <98, 14, 34, 20, 4, 0, 0, [0, 0, 0, 0, 1, 1]>, <99, 15, 35, 20, 4, 0, 0, [0, 0, 0, 0, 1, 1]>, <100, 1, 17, 16, 5, 1, 0, [0, 0, 0, 1, 1, 0]>, <101, 2, 18, 16, 5, 1, 0, [0, 0, 0, 1, 1, 0]>, <102, 3, 19, 16, 5, 1, 0, [0, 0, 0, 1, 1, 0]>, <103, 4, 20, 16, 5, 1, 0, [0, 0, 0, 1, 1, 0]>, <104, 5, 21, 16, 5, 1, 0, [0, 0, 0, 1, 1, 0]>, <105, 6, 22, 16, 5, 1, 0, [0, 0, 0, 1, 1, 0]>, <106, 10, 26, 16, 5, 1, 0, [0, 0, 0, 1, 1, 0]>, <107, 11, 27, 16, 5, 1, 0, [0, 0, 0, 1, 1, 0]>, <108, 12, 28, 16, 5, 1, 0, [0, 0, 0, 1, 1, 0]>, <109, 13, 29, 16, 5, 1, 0, [0, 0, 0, 1, 1, 0]>, <110, 14, 30, 16, 5, 1, 0, [0, 0, 0, 1, 1, 0]>, <111, 15, 31, 16, 5, 1, 0, [0, 0, 0, 1, 1, 0]>, <112, 16, 32, 16, 5, 1, 0, [0, 0, 0, 1, 1, 0]>, <113, 17, 33, 16, 5, 1, 0, [0, 0, 0, 1, 1, 0]>, <114, 18, 34, 16, 5, 1, 0, [0, 0, 0, 1, 1, 0]>, <115, 19, 35, 16, 5, 1, 0, [0, 0, 0, 1, 1, 0]>, <116, 0, 19, 19, 6, 1, 0, [1, 1, 0, 0, 0, 0]>, <117, 1, 20, 19, 6, 1, 0, [1, 1, 0, 0, 0, 0]>, <118, 2, 21, 19, 6, 1, 0, [1, 1, 0, 0, 0, 0]>, <119, 3, 22, 19, 6, 1, 0, [1, 1, 0, 0, 0, 0]>, <120, 4, 23, 19, 6, 1, 0, [1, 1, 0, 0, 0, 0]>, <121, 5, 24, 19, 6, 1, 0, [1, 1, 0, 0, 0, 0]>, <122, 6, 25, 19, 6, 1, 0, [1, 1, 0, 0, 0, 0]>, <123, 7, 26, 19, 6, 1, 0, [1, 1, 0, 0, 0, 0]>, <124, 8, 27, 19, 6, 1, 0, [1, 1, 0, 0, 0, 0]>, <125, 9, 28, 19, 6, 1, 0, [1, 1, 0, 0, 0, 0]>, <126, 10, 29, 19, 6, 1, 0, [1, 1, 0, 0, 0, 0]>, <127, 11, 30, 19, 6, 1, 0, [1, 1, 0, 0, 0, 0]>, <128, 12, 31, 19, 6, 1, 0, [1, 1, 0, 0, 0, 0]>, <129, 13, 32, 19, 6, 1, 0, [1, 1, 0, 0, 0, 0]>, <130, 14, 33, 19, 6, 1, 0, [1, 1, 0, 0, 0, 0]>, <131, 15, 34, 19, 6, 1, 0, [1, 1, 0, 0, 0, 0]>, <132, 16, 35, 19, 6, 1, 0, [1, 1, 0, 0, 0, 0]>, <133, 0, 20, 20, 7, 1, 0, [0, 1, 1, 0, 0, 0]>, <134, 1, 21, 20, 7, 1, 0, [0, 1, 1, 0, 0, 0]>, <135, 2, 22, 20, 7, 1, 0, [0, 1, 1, 0, 0, 0]>, <136, 3, 23, 20, 7, 1, 0, [0, 1, 1, 0, 0, 0]>, <137, 4, 24, 20, 7, 1, 0, [0, 1, 1, 0, 0, 0]>, <138, 5, 25, 20, 7, 1, 0, [0, 1, 1, 0, 0, 0]>, <139, 6, 26, 20, 7, 1, 0, [0, 1, 1, 0, 0, 0]>, <140, 7, 27, 20, 7, 1, 0, [0, 1, 1, 0, 0, 0]>, <141, 8, 28, 20, 7, 1, 0, [0, 1, 1, 0, 0, 0]>, <142, 9, 29, 20, 7, 1, 0, [0, 1, 1, 0, 0, 0]>, <143, 10, 30, 20, 7, 1, 0, [0, 1, 1, 0, 0, 0]>, <144, 11, 31, 20, 7, 1, 0, [0, 1, 1, 0, 0, 0]>, <145, 12, 32, 20, 7, 1, 0, [0, 1, 1, 0, 0, 0]>, <146, 13, 33, 20, 7, 1, 0, [0, 1, 1, 0, 0, 0]>, <147, 14, 34, 20, 7, 1, 0, [0, 1, 1, 0, 0, 0]>, <148, 15, 35, 20, 7, 1, 0, [0, 1, 1, 0, 0, 0]>, <149, 0, 18, 18, 8, 0, 0, [1, 1, 0, 0, 0, 0]>, <150, 1, 19, 18, 8, 0, 0, [1, 1, 0, 0, 0, 0]>, <151, 2, 20, 18, 8, 0, 0, [1, 1, 0, 0, 0, 0]>, <152, 3, 21, 18, 8, 0, 0, [1, 1, 0, 0, 0, 0]>, <153, 4, 22, 18, 8, 0, 0, [1, 1, 0, 0, 0, 0]>, <154, 5, 23, 18, 8, 0, 0, [1, 1, 0, 0, 0, 0]>, <155, 6, 24, 18, 8, 0, 0, [1, 1, 0, 0, 0, 0]>, <156, 8, 26, 18, 8, 0, 0, [1, 1, 0, 0, 0, 0]>, <157, 9, 27, 18, 8, 0, 0, [1, 1, 0, 0, 0, 0]>, <158, 10, 28, 18, 8, 0, 0, [1, 1, 0, 0, 0, 0]>, <159, 11, 29, 18, 8, 0, 0, [1, 1, 0, 0, 0, 0]>, <160, 12, 30, 18, 8, 0, 0, [1, 1, 0, 0, 0, 0]>, <161, 13, 31, 18, 8, 0, 0, [1, 1, 0, 0, 0, 0]>, <162, 14, 32, 18, 8, 0, 0, [1, 1, 0, 0, 0, 0]>, <163, 15, 33, 18, 8, 0, 0, [1, 1, 0, 0, 0, 0]>, <164, 16, 34, 18, 8, 0, 0, [1, 1, 0, 0, 0, 0]>, <165, 17, 35, 18, 8, 0, 0, [1, 1, 0, 0, 0, 0]>, <166, 0, 22, 22, 9, 0, 0, [1, 1, 0, 0, 0, 0]>, <167, 1, 23, 22, 9, 0, 0, [1, 1, 0, 0, 0, 0]>, <168, 2, 24, 22, 9, 0, 0, [1, 1, 0, 0, 0, 0]>, <169, 3, 25, 22, 9, 0, 0, [1, 1, 0, 0, 0, 0]>, <170, 4, 26, 22, 9, 0, 0, [1, 1, 0, 0, 0, 0]>, <171, 5, 27, 22, 9, 0, 0, [1, 1, 0, 0, 0, 0]>, <172, 6, 28, 22, 9, 0, 0, [1, 1, 0, 0, 0, 0]>, <173, 7, 29, 22, 9, 0, 0, [1, 1, 0, 0, 0, 0]>, <174, 8, 30, 22, 9, 0, 0, [1, 1, 0, 0, 0, 0]>, <175, 9, 31, 22, 9, 0, 0, [1, 1, 0, 0, 0, 0]>, <176, 10, 32, 22, 9, 0, 0, [1, 1, 0, 0, 0, 0]>, <177, 11, 33, 22, 9, 0, 0, [1, 1, 0, 0, 0, 0]>, <178, 12, 34, 22, 9, 0, 0, [1, 1, 0, 0, 0, 0]>, <179, 13, 35, 22, 9, 0, 0, [1, 1, 0, 0, 0, 0]>, <180, 0, 21, 21, 10, 0, 0, [0, 0, 1, 1, 0, 0]>, <181, 1, 22, 21, 10, 0, 0, [0, 0, 1, 1, 0, 0]>, <182, 2, 23, 21, 10, 0, 0, [0, 0, 1, 1, 0, 0]>, <183, 3, 24, 21, 10, 0, 0, [0, 0, 1, 1, 0, 0]>, <184, 4, 25, 21, 10, 0, 0, [0, 0, 1, 1, 0, 0]>, <185, 5, 26, 21, 10, 0, 0, [0, 0, 1, 1, 0, 0]>, <186, 6, 27, 21, 10, 0, 0, [0, 0, 1, 1, 0, 0]>, <187, 7, 28, 21, 10, 0, 0, [0, 0, 1, 1, 0, 0]>, <188, 8, 29, 21, 10, 0, 0, [0, 0, 1, 1, 0, 0]>, <189, 9, 30, 21, 10, 0, 0, [0, 0, 1, 1, 0, 0]>, <190, 10, 31, 21, 10, 0, 0, [0, 0, 1, 1, 0, 0]>, <191, 11, 32, 21, 10, 0, 0, [0, 0, 1, 1, 0, 0]>, <192, 12, 33, 21, 10, 0, 0, [0, 0, 1, 1, 0, 0]>, <193, 13, 34, 21, 10, 0, 0, [0, 0, 1, 1, 0, 0]>, <194, 14, 35, 21, 10, 0, 0, [0, 0, 1, 1, 0, 0]>, <195, 0, 17, 17, 11, 0, 1, [1, 0, 0, 0, 0, 1]>, <196, 1, 18, 17, 11, 0, 1, [1, 0, 0, 0, 0, 1]>, <197, 2, 19, 17, 11, 0, 1, [1, 0, 0, 0, 0, 1]>, <198, 3, 20, 17, 11, 0, 1, [1, 0, 0, 0, 0, 1]>, <199, 4, 21, 17, 11, 0, 1, [1, 0, 0, 0, 0, 1]>, <200, 5, 22, 17, 11, 0, 1, [1, 0, 0, 0, 0, 1]>, <201, 6, 23, 17, 11, 0, 1, [1, 0, 0, 0, 0, 1]>, <202, 9, 26, 17, 11, 0, 1, [1, 0, 0, 0, 0, 1]>, <203, 10, 27, 17, 11, 0, 1, [1, 0, 0, 0, 0, 1]>, <204, 11, 28, 17, 11, 0, 1, [1, 0, 0, 0, 0, 1]>, <205, 12, 29, 17, 11, 0, 1, [1, 0, 0, 0, 0, 1]>, <206, 13, 30, 17, 11, 0, 1, [1, 0, 0, 0, 0, 1]>, <207, 14, 31, 17, 11, 0, 1, [1, 0, 0, 0, 0, 1]>, <208, 15, 32, 17, 11, 0, 1, [1, 0, 0, 0, 0, 1]>, <209, 16, 33, 17, 11, 0, 1, [1, 0, 0, 0, 0, 1]>, <210, 17, 34, 17, 11, 0, 1, [1, 0, 0, 0, 0, 1]>, <211, 18, 35, 17, 11, 0, 1, [1, 0, 0, 0, 0, 1]>, <212, 0, 19, 19, 12, 0, 0, [1, 0, 0, 0, 0, 1]>, <213, 1, 20, 19, 12, 0, 0, [1, 0, 0, 0, 0, 1]>, <214, 2, 21, 19, 12, 0, 0, [1, 0, 0, 0, 0, 1]>, <215, 3, 22, 19, 12, 0, 0, [1, 0, 0, 0, 0, 1]>, <216, 4, 23, 19, 12, 0, 0, [1, 0, 0, 0, 0, 1]>, <217, 5, 24, 19, 12, 0, 0, [1, 0, 0, 0, 0, 1]>, <218, 6, 25, 19, 12, 0, 0, [1, 0, 0, 0, 0, 1]>, <219, 7, 26, 19, 12, 0, 0, [1, 0, 0, 0, 0, 1]>, <220, 8, 27, 19, 12, 0, 0, [1, 0, 0, 0, 0, 1]>, <221, 9, 28, 19, 12, 0, 0, [1, 0, 0, 0, 0, 1]>, <222, 10, 29, 19, 12, 0, 0, [1, 0, 0, 0, 0, 1]>, <223, 11, 30, 19, 12, 0, 0, [1, 0, 0, 0, 0, 1]>, <224, 12, 31, 19, 12, 0, 0, [1, 0, 0, 0, 0, 1]>, <225, 13, 32, 19, 12, 0, 0, [1, 0, 0, 0, 0, 1]>, <226, 14, 33, 19, 12, 0, 0, [1, 0, 0, 0, 0, 1]>, <227, 15, 34, 19, 12, 0, 0, [1, 0, 0, 0, 0, 1]>, <228, 16, 35, 19, 12, 0, 0, [1, 0, 0, 0, 0, 1]>, <229, 0, 18, 18, 13, 1, 0, [1, 1, 0, 0, 0, 0]>, <230, 1, 19, 18, 13, 1, 0, [1, 1, 0, 0, 0, 0]>, <231, 2, 20, 18, 13, 1, 0, [1, 1, 0, 0, 0, 0]>, <232, 3, 21, 18, 13, 1, 0, [1, 1, 0, 0, 0, 0]>, <233, 4, 22, 18, 13, 1, 0, [1, 1, 0, 0, 0, 0]>, <234, 5, 23, 18, 13, 1, 0, [1, 1, 0, 0, 0, 0]>, <235, 6, 24, 18, 13, 1, 0, [1, 1, 0, 0, 0, 0]>, <236, 8, 26, 18, 13, 1, 0, [1, 1, 0, 0, 0, 0]>, <237, 9, 27, 18, 13, 1, 0, [1, 1, 0, 0, 0, 0]>, <238, 10, 28, 18, 13, 1, 0, [1, 1, 0, 0, 0, 0]>, <239, 11, 29, 18, 13, 1, 0, [1, 1, 0, 0, 0, 0]>, <240, 12, 30, 18, 13, 1, 0, [1, 1, 0, 0, 0, 0]>, <241, 13, 31, 18, 13, 1, 0, [1, 1, 0, 0, 0, 0]>, <242, 14, 32, 18, 13, 1, 0, [1, 1, 0, 0, 0, 0]>, <243, 15, 33, 18, 13, 1, 0, [1, 1, 0, 0, 0, 0]>, <244, 16, 34, 18, 13, 1, 0, [1, 1, 0, 0, 0, 0]>, <245, 17, 35, 18, 13, 1, 0, [1, 1, 0, 0, 0, 0]>, <246, 0, 20, 20, 14, 0, 0, [0, 0, 1, 1, 0, 0]>, <247, 1, 21, 20, 14, 0, 0, [0, 0, 1, 1, 0, 0]>, <248, 2, 22, 20, 14, 0, 0, [0, 0, 1, 1, 0, 0]>, <249, 3, 23, 20, 14, 0, 0, [0, 0, 1, 1, 0, 0]>, <250, 4, 24, 20, 14, 0, 0, [0, 0, 1, 1, 0, 0]>, <251, 5, 25, 20, 14, 0, 0, [0, 0, 1, 1, 0, 0]>, <252, 6, 26, 20, 14, 0, 0, [0, 0, 1, 1, 0, 0]>, <253, 7, 27, 20, 14, 0, 0, [0, 0, 1, 1, 0, 0]>, <254, 8, 28, 20, 14, 0, 0, [0, 0, 1, 1, 0, 0]>, <255, 9, 29, 20, 14, 0, 0, [0, 0, 1, 1, 0, 0]>, <256, 10, 30, 20, 14, 0, 0, [0, 0, 1, 1, 0, 0]>, <257, 11, 31, 20, 14, 0, 0, [0, 0, 1, 1, 0, 0]>, <258, 12, 32, 20, 14, 0, 0, [0, 0, 1, 1, 0, 0]>, <259, 13, 33, 20, 14, 0, 0, [0, 0, 1, 1, 0, 0]>, <260, 14, 34, 20, 14, 0, 0, [0, 0, 1, 1, 0, 0]>, <261, 15, 35, 20, 14, 0, 0, [0, 0, 1, 1, 0, 0]>};
